% Logging successfully configured
%%%mzn-stat: initTime=0.005543213
%%%mzn-stat: objective=1138
%%%mzn-stat: nodes=252
%%%mzn-stat: restarts=0
%%%mzn-stat: peakDepth=250
%%%mzn-stat: solveTime=0.002207167
%%%mzn-stat: variables=685
%%%mzn-stat: propagators=408
%%%mzn-stat: failures=2
%%%mzn-stat: propagations=1345
%%%mzn-stat: nogoods=2
%%%mzn-stat: numAtomicConstraintsPropagated=0
%%%mzn-stat: circuitNumber1PropagationsTotal=55
%%%mzn-stat: circuitNumber1CircuitConflicts=1
%%%mzn-stat: circuitNumber1AlldiffConflicts=0
%%%mzn-stat: circuitNumber1TotalFixedEdgesAtConflict=50
%%%mzn-stat: circuitNumber1NumberOfConflicts=1
%%%mzn-stat: circuitNumber1GacPrunings=155
%%%mzn-stat: circuitNumber1PropagationsThatGacPruned=27
%%%mzn-stat: circuitNumber1TotalPruningHallSetSize=892
%%%mzn-stat: circuitNumber1NumberOfPruningExplanations=155
%%%mzn-stat: circuitNumber1MaxPruningHallSetSize=49
%%%mzn-stat: circuitNumber1TotalSccSizeAtPruning=454
%%%mzn-stat: circuitNumber1NumberOfSccPruningCalls=27
%%%mzn-stat: circuitNumber1TotalVarsInvolvedInPruning=126
%%%mzn-stat: circuitNumber1MaxValuesPrunedFromSingleVar=4
%%%mzn-stat: circuitNumber1HallCircuitChecks=58
%%%mzn-stat: circuitNumber1HallCircuitPrunings=0
%%%mzn-stat: circuitNumber1CircuitPreventPrunings=20
%%%mzn-stat: AverageConflictSize=15.5
%%%mzn-stat: NumUnitNogoodsLearned=0
%%%mzn-stat: AverageLearnedNogoodLength=26
%%%mzn-stat: AverageBacktrackAmount=0
%%%mzn-stat: AverageLbd=13.5
%%%mzn-stat: 2AutonomousSearchNumBackupCalled=235
%%%mzn-stat: 2AutonomousSearchNumPredicatesRemoved=0
%%%mzn-stat: 2AutonomousSearchNumCalls=236
%%%mzn-stat: 2AutonomousSearchNumPredicatesAdded=380
%%%mzn-stat: 2AutonomousSearchAverageSizeOfHeap=1.6101694915254237
%%%mzn-stat: 2AutonomousSearchNumAssignedPredicatesEncountered=380
%%%mzn-stat-end
maxleg = 1138;
succ = array1d(1..50,[15, 16, 2, 10, 17, 3, 9, 7, 20, 48, 5, 4, 22, 18, 11, 36, 43, 41, 30, 12, 27, 23, 42, 13, 39, 31, 33, 26, 34, 49, 6, 38, 32, 44, 47, 50, 40, 28, 1, 19, 25, 14, 29, 46, 37, 21, 45, 35, 24, 8]);
% time elapsed: 7.02 s
----------
%%%mzn-stat: initTime=0.005543213
%%%mzn-stat: objective=1076
%%%mzn-stat: nodes=508
%%%mzn-stat: restarts=0
%%%mzn-stat: peakDepth=256
%%%mzn-stat: solveTime=0.004405508
%%%mzn-stat: variables=685
%%%mzn-stat: propagators=408
%%%mzn-stat: failures=3
%%%mzn-stat: propagations=2083
%%%mzn-stat: nogoods=3
%%%mzn-stat: numAtomicConstraintsPropagated=0
%%%mzn-stat: circuitNumber1PropagationsTotal=102
%%%mzn-stat: circuitNumber1CircuitConflicts=2
%%%mzn-stat: circuitNumber1AlldiffConflicts=0
%%%mzn-stat: circuitNumber1TotalFixedEdgesAtConflict=100
%%%mzn-stat: circuitNumber1NumberOfConflicts=2
%%%mzn-stat: circuitNumber1GacPrunings=284
%%%mzn-stat: circuitNumber1PropagationsThatGacPruned=48
%%%mzn-stat: circuitNumber1TotalPruningHallSetSize=1873
%%%mzn-stat: circuitNumber1NumberOfPruningExplanations=284
%%%mzn-stat: circuitNumber1MaxPruningHallSetSize=49
%%%mzn-stat: circuitNumber1TotalSccSizeAtPruning=817
%%%mzn-stat: circuitNumber1NumberOfSccPruningCalls=48
%%%mzn-stat: circuitNumber1TotalVarsInvolvedInPruning=224
%%%mzn-stat: circuitNumber1MaxValuesPrunedFromSingleVar=6
%%%mzn-stat: circuitNumber1HallCircuitChecks=103
%%%mzn-stat: circuitNumber1HallCircuitPrunings=0
%%%mzn-stat: circuitNumber1CircuitPreventPrunings=31
%%%mzn-stat: AverageConflictSize=21.666666666666668
%%%mzn-stat: NumUnitNogoodsLearned=0
%%%mzn-stat: AverageLearnedNogoodLength=22.666666666666668
%%%mzn-stat: AverageBacktrackAmount=0
%%%mzn-stat: AverageLbd=14.333333333333334
%%%mzn-stat: 2AutonomousSearchNumBackupCalled=473
%%%mzn-stat: 2AutonomousSearchNumPredicatesRemoved=0
%%%mzn-stat: 2AutonomousSearchNumCalls=475
%%%mzn-stat: 2AutonomousSearchNumPredicatesAdded=625
%%%mzn-stat: 2AutonomousSearchAverageSizeOfHeap=1.8673684210526316
%%%mzn-stat: 2AutonomousSearchNumAssignedPredicatesEncountered=887
%%%mzn-stat-end
maxleg = 1076;
succ = array1d(1..50,[15, 16, 2, 10, 17, 3, 9, 7, 20, 48, 5, 4, 22, 18, 29, 36, 43, 41, 30, 12, 27, 23, 11, 13, 39, 31, 33, 26, 14, 49, 6, 38, 32, 44, 34, 50, 42, 28, 1, 19, 37, 47, 25, 46, 21, 40, 45, 35, 24, 8]);
% time elapsed: 7.02 s
----------
%%%mzn-stat: initTime=0.005543213
%%%mzn-stat: objective=1033
%%%mzn-stat: nodes=760
%%%mzn-stat: restarts=0
%%%mzn-stat: peakDepth=256
%%%mzn-stat: solveTime=0.006105908
%%%mzn-stat: variables=685
%%%mzn-stat: propagators=408
%%%mzn-stat: failures=3
%%%mzn-stat: propagations=2766
%%%mzn-stat: nogoods=3
%%%mzn-stat: numAtomicConstraintsPropagated=0
%%%mzn-stat: circuitNumber1PropagationsTotal=141
%%%mzn-stat: circuitNumber1CircuitConflicts=2
%%%mzn-stat: circuitNumber1AlldiffConflicts=0
%%%mzn-stat: circuitNumber1TotalFixedEdgesAtConflict=100
%%%mzn-stat: circuitNumber1NumberOfConflicts=2
%%%mzn-stat: circuitNumber1GacPrunings=392
%%%mzn-stat: circuitNumber1PropagationsThatGacPruned=66
%%%mzn-stat: circuitNumber1TotalPruningHallSetSize=2693
%%%mzn-stat: circuitNumber1NumberOfPruningExplanations=392
%%%mzn-stat: circuitNumber1MaxPruningHallSetSize=49
%%%mzn-stat: circuitNumber1TotalSccSizeAtPruning=1082
%%%mzn-stat: circuitNumber1NumberOfSccPruningCalls=66
%%%mzn-stat: circuitNumber1TotalVarsInvolvedInPruning=307
%%%mzn-stat: circuitNumber1MaxValuesPrunedFromSingleVar=6
%%%mzn-stat: circuitNumber1HallCircuitChecks=142
%%%mzn-stat: circuitNumber1HallCircuitPrunings=0
%%%mzn-stat: circuitNumber1CircuitPreventPrunings=41
%%%mzn-stat: AverageConflictSize=21.666666666666668
%%%mzn-stat: NumUnitNogoodsLearned=0
%%%mzn-stat: AverageLearnedNogoodLength=22.666666666666668
%%%mzn-stat: AverageBacktrackAmount=0
%%%mzn-stat: AverageLbd=14.333333333333334
%%%mzn-stat: 2AutonomousSearchNumBackupCalled=709
%%%mzn-stat: 2AutonomousSearchNumPredicatesRemoved=0
%%%mzn-stat: 2AutonomousSearchNumCalls=712
%%%mzn-stat: 2AutonomousSearchNumPredicatesAdded=625
%%%mzn-stat: 2AutonomousSearchAverageSizeOfHeap=1.9578651685393258
%%%mzn-stat: 2AutonomousSearchNumAssignedPredicatesEncountered=1394
%%%mzn-stat-end
maxleg = 1033;
succ = array1d(1..50,[15, 32, 2, 10, 17, 3, 9, 7, 20, 48, 5, 4, 22, 18, 29, 36, 43, 41, 30, 12, 27, 23, 6, 13, 39, 31, 11, 26, 14, 49, 45, 21, 16, 44, 34, 50, 42, 28, 1, 19, 37, 47, 25, 46, 33, 40, 38, 35, 24, 8]);
% time elapsed: 7.02 s
----------
%%%mzn-stat: initTime=0.005543213
%%%mzn-stat: objective=974
%%%mzn-stat: nodes=1011
%%%mzn-stat: restarts=0
%%%mzn-stat: peakDepth=256
%%%mzn-stat: solveTime=0.008158906
%%%mzn-stat: variables=685
%%%mzn-stat: propagators=408
%%%mzn-stat: failures=4
%%%mzn-stat: propagations=3455
%%%mzn-stat: nogoods=4
%%%mzn-stat: numAtomicConstraintsPropagated=0
%%%mzn-stat: circuitNumber1PropagationsTotal=182
%%%mzn-stat: circuitNumber1CircuitConflicts=2
%%%mzn-stat: circuitNumber1AlldiffConflicts=0
%%%mzn-stat: circuitNumber1TotalFixedEdgesAtConflict=100
%%%mzn-stat: circuitNumber1NumberOfConflicts=2
%%%mzn-stat: circuitNumber1GacPrunings=504
%%%mzn-stat: circuitNumber1PropagationsThatGacPruned=86
%%%mzn-stat: circuitNumber1TotalPruningHallSetSize=3591
%%%mzn-stat: circuitNumber1NumberOfPruningExplanations=504
%%%mzn-stat: circuitNumber1MaxPruningHallSetSize=49
%%%mzn-stat: circuitNumber1TotalSccSizeAtPruning=1377
%%%mzn-stat: circuitNumber1NumberOfSccPruningCalls=86
%%%mzn-stat: circuitNumber1TotalVarsInvolvedInPruning=391
%%%mzn-stat: circuitNumber1MaxValuesPrunedFromSingleVar=6
%%%mzn-stat: circuitNumber1HallCircuitChecks=180
%%%mzn-stat: circuitNumber1HallCircuitPrunings=0
%%%mzn-stat: circuitNumber1CircuitPreventPrunings=51
%%%mzn-stat: AverageConflictSize=23.75
%%%mzn-stat: NumUnitNogoodsLearned=0
%%%mzn-stat: AverageLearnedNogoodLength=24
%%%mzn-stat: AverageBacktrackAmount=0
%%%mzn-stat: AverageLbd=14.75
%%%mzn-stat: 2AutonomousSearchNumBackupCalled=944
%%%mzn-stat: 2AutonomousSearchNumPredicatesRemoved=0
%%%mzn-stat: 2AutonomousSearchNumCalls=948
%%%mzn-stat: 2AutonomousSearchNumPredicatesAdded=678
%%%mzn-stat: 2AutonomousSearchAverageSizeOfHeap=2.0179324894514767
%%%mzn-stat: 2AutonomousSearchNumAssignedPredicatesEncountered=1913
%%%mzn-stat-end
maxleg = 974;
succ = array1d(1..50,[15, 32, 2, 10, 17, 3, 9, 7, 20, 48, 5, 4, 22, 18, 29, 36, 43, 41, 30, 12, 27, 23, 11, 13, 39, 31, 33, 26, 34, 49, 6, 21, 16, 45, 44, 50, 42, 28, 1, 19, 37, 47, 25, 46, 14, 40, 38, 35, 24, 8]);
% time elapsed: 7.02 s
----------
%%%mzn-stat: initTime=0.005543213
%%%mzn-stat: objective=942
%%%mzn-stat: nodes=1261
%%%mzn-stat: restarts=0
%%%mzn-stat: peakDepth=256
%%%mzn-stat: solveTime=0.009803629
%%%mzn-stat: variables=685
%%%mzn-stat: propagators=408
%%%mzn-stat: failures=4
%%%mzn-stat: propagations=4144
%%%mzn-stat: nogoods=4
%%%mzn-stat: numAtomicConstraintsPropagated=0
%%%mzn-stat: circuitNumber1PropagationsTotal=223
%%%mzn-stat: circuitNumber1CircuitConflicts=2
%%%mzn-stat: circuitNumber1AlldiffConflicts=0
%%%mzn-stat: circuitNumber1TotalFixedEdgesAtConflict=100
%%%mzn-stat: circuitNumber1NumberOfConflicts=2
%%%mzn-stat: circuitNumber1GacPrunings=614
%%%mzn-stat: circuitNumber1PropagationsThatGacPruned=105
%%%mzn-stat: circuitNumber1TotalPruningHallSetSize=4398
%%%mzn-stat: circuitNumber1NumberOfPruningExplanations=614
%%%mzn-stat: circuitNumber1MaxPruningHallSetSize=49
%%%mzn-stat: circuitNumber1TotalSccSizeAtPruning=1644
%%%mzn-stat: circuitNumber1NumberOfSccPruningCalls=105
%%%mzn-stat: circuitNumber1TotalVarsInvolvedInPruning=478
%%%mzn-stat: circuitNumber1MaxValuesPrunedFromSingleVar=6
%%%mzn-stat: circuitNumber1HallCircuitChecks=219
%%%mzn-stat: circuitNumber1HallCircuitPrunings=0
%%%mzn-stat: circuitNumber1CircuitPreventPrunings=58
%%%mzn-stat: AverageConflictSize=23.75
%%%mzn-stat: NumUnitNogoodsLearned=0
%%%mzn-stat: AverageLearnedNogoodLength=24
%%%mzn-stat: AverageBacktrackAmount=0
%%%mzn-stat: AverageLbd=14.75
%%%mzn-stat: 2AutonomousSearchNumBackupCalled=1177
%%%mzn-stat: 2AutonomousSearchNumPredicatesRemoved=0
%%%mzn-stat: 2AutonomousSearchNumCalls=1182
%%%mzn-stat: 2AutonomousSearchNumPredicatesAdded=678
%%%mzn-stat: 2AutonomousSearchAverageSizeOfHeap=2.057529610829103
%%%mzn-stat: 2AutonomousSearchNumAssignedPredicatesEncountered=2432
%%%mzn-stat-end
maxleg = 942;
succ = array1d(1..50,[15, 32, 2, 10, 17, 3, 9, 7, 20, 48, 5, 4, 22, 18, 29, 45, 43, 41, 30, 12, 27, 23, 11, 13, 39, 31, 33, 26, 16, 49, 6, 21, 36, 44, 34, 50, 42, 28, 1, 19, 37, 47, 25, 46, 14, 40, 38, 35, 24, 8]);
% time elapsed: 7.02 s
----------
%%%mzn-stat: initTime=0.005543213
%%%mzn-stat: objective=855
%%%mzn-stat: nodes=1487
%%%mzn-stat: restarts=0
%%%mzn-stat: peakDepth=256
%%%mzn-stat: solveTime=0.01203046
%%%mzn-stat: variables=685
%%%mzn-stat: propagators=408
%%%mzn-stat: failures=7
%%%mzn-stat: propagations=4950
%%%mzn-stat: nogoods=7
%%%mzn-stat: numAtomicConstraintsPropagated=0
%%%mzn-stat: circuitNumber1PropagationsTotal=272
%%%mzn-stat: circuitNumber1CircuitConflicts=4
%%%mzn-stat: circuitNumber1AlldiffConflicts=0
%%%mzn-stat: circuitNumber1TotalFixedEdgesAtConflict=190
%%%mzn-stat: circuitNumber1NumberOfConflicts=4
%%%mzn-stat: circuitNumber1GacPrunings=791
%%%mzn-stat: circuitNumber1PropagationsThatGacPruned=127
%%%mzn-stat: circuitNumber1TotalPruningHallSetSize=5706
%%%mzn-stat: circuitNumber1NumberOfPruningExplanations=791
%%%mzn-stat: circuitNumber1MaxPruningHallSetSize=49
%%%mzn-stat: circuitNumber1TotalSccSizeAtPruning=1937
%%%mzn-stat: circuitNumber1NumberOfSccPruningCalls=127
%%%mzn-stat: circuitNumber1TotalVarsInvolvedInPruning=598
%%%mzn-stat: circuitNumber1MaxValuesPrunedFromSingleVar=6
%%%mzn-stat: circuitNumber1HallCircuitChecks=279
%%%mzn-stat: circuitNumber1HallCircuitPrunings=0
%%%mzn-stat: circuitNumber1CircuitPreventPrunings=68
%%%mzn-stat: AverageConflictSize=17.571428571428573
%%%mzn-stat: NumUnitNogoodsLearned=0
%%%mzn-stat: AverageLearnedNogoodLength=20.285714285714285
%%%mzn-stat: AverageBacktrackAmount=0
%%%mzn-stat: AverageLbd=12
%%%mzn-stat: 2AutonomousSearchNumBackupCalled=1385
%%%mzn-stat: 2AutonomousSearchNumPredicatesRemoved=0
%%%mzn-stat: 2AutonomousSearchNumCalls=1391
%%%mzn-stat: 2AutonomousSearchNumPredicatesAdded=806
%%%mzn-stat: 2AutonomousSearchAverageSizeOfHeap=2.1876347951114306
%%%mzn-stat: 2AutonomousSearchNumAssignedPredicatesEncountered=3043
%%%mzn-stat-end
maxleg = 855;
succ = array1d(1..50,[15, 32, 2, 10, 17, 3, 9, 7, 20, 48, 5, 4, 46, 18, 11, 39, 43, 41, 30, 12, 44, 23, 6, 13, 22, 31, 33, 26, 16, 49, 45, 38, 36, 29, 34, 50, 40, 28, 1, 19, 37, 47, 25, 42, 14, 21, 27, 35, 24, 8]);
% time elapsed: 7.02 s
----------
==========
% time elapsed: 7.02 s
%%%mzn-stat: initTime=0.005543213
%%%mzn-stat: objective=855
%%%mzn-stat: nodes=1487
%%%mzn-stat: restarts=0
%%%mzn-stat: peakDepth=256
%%%mzn-stat: solveTime=0.012067327
%%%mzn-stat: variables=685
%%%mzn-stat: propagators=408
%%%mzn-stat: failures=8
%%%mzn-stat: propagations=5000
%%%mzn-stat: nogoods=8
%%%mzn-stat: numAtomicConstraintsPropagated=0
%%%mzn-stat: circuitNumber1PropagationsTotal=272
%%%mzn-stat: circuitNumber1CircuitConflicts=4
%%%mzn-stat: circuitNumber1AlldiffConflicts=0
%%%mzn-stat: circuitNumber1TotalFixedEdgesAtConflict=190
%%%mzn-stat: circuitNumber1NumberOfConflicts=4
%%%mzn-stat: circuitNumber1GacPrunings=791
%%%mzn-stat: circuitNumber1PropagationsThatGacPruned=127
%%%mzn-stat: circuitNumber1TotalPruningHallSetSize=5706
%%%mzn-stat: circuitNumber1NumberOfPruningExplanations=791
%%%mzn-stat: circuitNumber1MaxPruningHallSetSize=49
%%%mzn-stat: circuitNumber1TotalSccSizeAtPruning=1937
%%%mzn-stat: circuitNumber1NumberOfSccPruningCalls=127
%%%mzn-stat: circuitNumber1TotalVarsInvolvedInPruning=598
%%%mzn-stat: circuitNumber1MaxValuesPrunedFromSingleVar=6
%%%mzn-stat: circuitNumber1HallCircuitChecks=279
%%%mzn-stat: circuitNumber1HallCircuitPrunings=0
%%%mzn-stat: circuitNumber1CircuitPreventPrunings=68
%%%mzn-stat: AverageConflictSize=15.625
%%%mzn-stat: NumUnitNogoodsLearned=1
%%%mzn-stat: AverageLearnedNogoodLength=17.875
%%%mzn-stat: AverageBacktrackAmount=0
%%%mzn-stat: AverageLbd=10.625
%%%mzn-stat: 2AutonomousSearchNumBackupCalled=1385
%%%mzn-stat: 2AutonomousSearchNumPredicatesRemoved=0
%%%mzn-stat: 2AutonomousSearchNumCalls=1391
%%%mzn-stat: 2AutonomousSearchNumPredicatesAdded=821
%%%mzn-stat: 2AutonomousSearchAverageSizeOfHeap=2.1876347951114306
%%%mzn-stat: 2AutonomousSearchNumAssignedPredicatesEncountered=3043
%%%mzn-stat-end
